c uprop, v00.0, 
c reading from data/prog750.c.cnf
c done reading: 0.004298
p cnf 89 342
-61 -73 0
61 73 0
-45 -51 0
45 51 0
42 -73 0
-42 73 0
-42 -57 73 0
-42 -57 0
42 57 -73 0
42 57 0
-45 53 -73 0
-42 -45 53 0
-42 53 -73 0
45 -53 73 0
42 45 -53 0
42 -53 73 0
45 -53 -59 0
-53 -59 73 0
42 -53 -59 0
-45 53 59 0
53 59 -73 0
-42 53 59 0
-42 -45 59 -73 0
42 45 -59 73 0
-45 -53 65 0
45 -65 0
53 -65 0
45 53 -65 0
-65 -67 0
45 -65 -67 0
53 -65 -67 0
-45 65 67 0
-53 65 67 0
45 53 -67 0
47 -65 0
-47 65 0
-54 59 0
54 -59 0
62 -67 0
-62 67 0
-39 -62 67 0
-39 -62 0
39 62 -67 0
39 62 0
-47 48 -73 0
-47 48 -62 0
48 -62 -73 0
47 -48 73 0
47 -48 62 0
-48 62 73 0
-37 47 -48 0
-37 -48 73 0
-37 -48 62 0
37 -47 48 0
37 48 -73 0
37 48 -62 0
37 -47 -62 -73 0
-37 47 62 73 0
35 -45 -48 0
-35 45 0
-35 48 0
-35 45 48 0
-32 -35 0
-32 -35 45 0
-32 -35 48 0
32 35 -45 0
32 35 -48 0
-32 45 48 0
29 -35 0
-29 35 0
39 -52 0
-39 52 0
-37 58 0
37 -58 0
37 -58 -64 0
-58 -64 0
-37 58 64 0
58 64 0
-32 66 -73 0
-32 -58 66 0
-58 66 -73 0
32 -66 73 0
32 58 -66 0
58 -66 73 0
-28 32 -66 0
-28 -66 73 0
-28 58 -66 0
28 -32 66 0
28 66 -73 0
28 -58 66 0
28 -32 -58 -73 0
-28 32 58 73 0
-29 -45 0
-29 -66 0
-45 -66 0
27 -29 0
27 -45 0
27 -66 0
27 -29 -45 -66 0
-27 29 45 66 0
-34 -57 0
34 57 0
-26 -54 0
26 54 0
-25 -52 0
25 52 0
-24 -64 0
24 64 0
-28 -68 0
28 68 0
-27 -43 0
27 43 0
-69 -84 0
-69 -86 0
69 84 86 0
-70 84 86 0
-70 -84 -86 0
70 -84 86 0
70 84 -86 0
-41 69 0
-41 -88 0
41 -69 88 0
-46 -69 88 0
-46 69 -88 0
46 69 88 0
46 -69 -88 0
41 -55 0
-55 -72 0
-41 55 72 0
-41 -63 72 0
41 -63 -72 0
41 63 72 0
-41 63 -72 0
-40 55 0
-31 -40 0
31 40 -55 0
31 -49 -55 0
-31 -49 55 0
31 49 55 0
-31 49 -55 0
-38 40 0
-38 -76 0
38 -40 76 0
-36 -40 76 0
-36 40 -76 0
36 40 76 0
36 -40 -76 0
-33 38 0
-33 -78 0
33 -38 78 0
-38 -74 78 0
38 -74 -78 0
38 74 78 0
-38 74 -78 0
33 -44 0
-44 -81 0
-33 44 81 0
-33 -77 81 0
33 -77 -81 0
33 77 81 0
-33 77 -81 0
-79 88 0
-79 84 0
79 -84 -88 0
-82 -84 -88 0
-82 84 88 0
82 84 -88 0
82 -84 88 0
-72 83 -86 0
-72 -79 83 0
-79 83 -86 0
72 -83 86 0
72 79 -83 0
79 -83 86 0
72 -83 -85 0
-83 -85 86 0
79 -83 -85 0
-72 83 85 0
83 85 -86 0
-79 83 85 0
-72 -79 85 -86 0
72 79 -85 86 0
-31 87 -88 0
-31 -83 87 0
-83 87 -88 0
31 -87 88 0
31 83 -87 0
83 -87 88 0
31 -87 -89 0
-87 88 -89 0
83 -87 -89 0
-31 87 89 0
87 -88 89 0
-83 87 89 0
-31 -83 -88 89 0
31 83 88 -89 0
71 -72 -76 0
71 -76 -87 0
71 -72 -87 0
-71 72 76 0
-71 76 87 0
-71 72 87 0
-30 -71 76 0
-30 -71 72 0
-30 -71 87 0
30 71 -76 0
30 71 -72 0
30 71 -87 0
30 -72 -76 -87 0
-30 72 76 87 0
-31 75 -78 0
-71 75 -78 0
-31 -71 75 0
31 -75 78 0
71 -75 78 0
31 71 -75 0
75 -78 0
-31 75 0
-71 75 0
-31 -71 -78 0
-76 80 -81 0
-75 80 -81 0
-75 -76 80 0
76 -80 81 0
75 -80 81 0
75 76 -80 0
80 -81 0
-76 80 0
-75 80 0
-75 -76 -81 0
-23 78 0
-23 80 0
23 -78 -80 0
-78 80 0
78 -80 0
-23 -81 0
23 -81 0
-23 81 0
-22 -84 0
-22 -86 0
22 84 86 0
-21 84 86 0
-21 -84 -86 0
21 -84 86 0
21 84 -86 0
-20 22 0
-20 -82 0
20 -22 82 0
-19 -22 82 0
-19 22 -82 0
19 22 82 0
19 -22 -82 0
-18 20 0
-18 -85 0
18 -20 85 0
-17 -20 85 0
-17 20 -85 0
17 20 85 0
17 -20 -85 0
-16 18 0
-16 -89 0
16 -18 89 0
-15 -18 89 0
-15 18 -89 0
15 18 89 0
15 -18 -89 0
-14 16 0
-14 -30 0
14 -16 30 0
-13 -16 30 0
-13 16 -30 0
13 16 30 0
13 -16 -30 0
-12 14 0
12 -14 0
-11 -14 0
11 14 0
-10 12 0
10 -12 0
-9 -12 0
9 12 0
10 -60 0
-10 60 0
-8 -10 0
8 10 0
-50 60 0
50 -60 0
-7 -60 0
7 60 0
-6 50 0
6 -50 0
-5 -50 0
5 50 0
-4 57 0
-4 84 0
4 -57 -84 0
-57 84 0
57 -84 0
3 -54 -86 0
3 -4 -54 0
3 -4 -86 0
-3 54 86 0
-3 4 54 0
-3 4 86 0
3 -54 0
3 -86 0
3 -4 0
-4 -54 -86 0
2 -52 -82 0
2 -3 -52 0
2 -3 -82 0
-2 52 82 0
-2 3 52 0
-2 3 82 0
2 -52 0
2 -82 0
2 -3 0
-3 -52 -82 0
1 -64 -85 0
1 -2 -64 0
1 -2 -85 0
-1 64 85 0
-1 2 64 0
-1 2 85 0
1 -64 0
1 -85 0
1 -2 0
-2 -64 -85 0
-28 56 -89 0
-1 -28 56 0
-1 56 -89 0
28 -56 89 0
1 28 -56 0
1 -56 89 0
-28 56 0
56 -89 0
-1 56 0
-1 -28 -89 0
-27 -30 0
-27 -56 0
-30 -56 0
27 30 56 0
